TYPE : Vertex Cover
DIMENSION: 40
EDGE_DATA_SECTION:
0 3
0 14
0 15
0 16
0 21
0 29
0 30
0 31
0 34
0 35
0 39
1 3
1 10
1 11
1 15
1 19
1 22
1 24
1 39
2 5
2 14
2 15
2 23
2 34
3 5
3 9
3 10
3 11
3 16
3 20
3 25
3 30
4 12
4 16
4 20
4 22
4 36
4 38
5 8
5 9
5 10
5 13
5 20
5 21
5 22
5 25
5 27
5 31
5 32
5 35
5 36
6 10
6 15
6 16
6 23
6 33
7 12
7 18
7 24
7 31
7 36
8 9
8 10
8 11
8 12
8 19
8 37
8 39
9 11
9 26
9 28
9 33
9 35
9 37
9 39
10 16
10 19
10 20
10 21
10 25
10 30
10 34
10 36
10 38
11 16
11 17
11 18
11 19
11 20
11 23
11 26
11 27
11 29
11 30
11 33
11 34
12 13
12 16
12 25
12 26
12 27
12 28
12 29
12 34
12 38
13 15
13 18
13 22
13 27
13 34
13 36
14 24
14 31
14 32
15 16
15 20
15 23
15 35
16 18
16 21
16 23
16 25
16 26
16 34
16 36
16 39
17 18
17 21
17 25
17 26
17 27
17 33
18 24
18 25
18 27
18 28
18 30
18 33
18 38
19 32
19 34
19 37
19 39
20 21
20 22
20 31
20 35
20 37
21 22
21 26
21 27
21 34
22 28
22 30
22 32
22 34
22 35
23 24
23 27
23 30
23 31
23 39
24 27
24 30
24 37
25 32
25 35
25 39
26 29
26 35
26 37
27 31
27 35
27 36
28 35
28 37
28 39
29 32
30 38
32 37
33 37
34 35
36 37
37 38
-1
VERTEX_DEGREE:
11.0 8.0 5.0 10.0 6.0 15.0 5.0 5.0 8.0 10.0 14.0 16.0 12.0 8.0 5.0 9.0 16.0 7.0 12.0 8.0 11.0 10.0 11.0 10.0 8.0 10.0 9.0 12.0 7.0 5.0 9.0 7.0 7.0 6.0 11.0 11.0 8.0 11.0 6.0 9.0
VERTEX_COVER:
0 2 3 4 5 6 9 10 11 12 13 15 16 17 18 19 21 22 23 24 26 31 32 35 36 37 38 39
EOF
